DIMENSION: 36
CAPACITY: 100
VEHICLES: 5
NODE_COORD_SECTION 
0 15 19
1 1 49
2 87 25
3 69 65
4 93 91
5 33 31
6 71 61
7 29 9
8 93 7
9 55 47
10 23 13
11 19 47
12 57 63
13 5 95
14 65 43
15 69 1
16 3 25
17 19 91
18 21 81
19 67 91
20 41 23
21 19 75
22 15 79
23 79 47
24 19 65
25 27 49
26 29 17
27 25 65
28 59 51
29 27 95
30 21 91
31 61 83
32 15 83
33 31 87
34 71 41
35 91 21
DEMAND_SECTION 
0 0 
1 1 
2 14 
3 15 
4 11 
5 18 
6 2 
7 22 
8 7 
9 18 
10 23 
11 12 
12 21 
13 2 
14 14 
15 9 
16 10 
17 4 
18 19 
19 2 
20 20 
21 15 
22 11 
23 6 
24 13 
25 19 
26 13 
27 8 
28 15 
29 18 
30 11 
31 21 
32 12 
33 2 
34 23 
35 11 
EOF 
